p cnf 375 1127
1 2 3 0
4 5 6 0
7 8 9 0
10 11 12 0
13 14 15 0
16 17 18 0
19 20 21 0
22 23 24 0
25 26 27 0
28 29 30 0
31 32 33 0
34 35 36 0
37 38 39 0
40 41 42 0
43 44 45 0
46 47 48 0
49 50 51 0
52 53 54 0
55 56 57 0
58 59 60 0
61 62 63 0
64 65 66 0
67 68 69 0
70 71 72 0
73 74 75 0
76 77 78 0
79 80 81 0
82 83 84 0
85 86 87 0
88 89 90 0
91 92 93 0
94 95 96 0
97 98 99 0
100 101 102 0
103 104 105 0
106 107 108 0
109 110 111 0
112 113 114 0
115 116 117 0
118 119 120 0
121 122 123 0
124 125 126 0
127 128 129 0
130 131 132 0
133 134 135 0
136 137 138 0
139 140 141 0
142 143 144 0
145 146 147 0
148 149 150 0
151 152 153 0
154 155 156 0
157 158 159 0
160 161 162 0
163 164 165 0
166 167 168 0
169 170 171 0
172 173 174 0
175 176 177 0
178 179 180 0
181 182 183 0
184 185 186 0
187 188 189 0
190 191 192 0
193 194 195 0
196 197 198 0
199 200 201 0
202 203 204 0
205 206 207 0
208 209 210 0
211 212 213 0
214 215 216 0
217 218 219 0
220 221 222 0
223 224 225 0
226 227 228 0
229 230 231 0
232 233 234 0
235 236 237 0
238 239 240 0
241 242 243 0
244 245 246 0
247 248 249 0
250 251 252 0
253 254 255 0
256 257 258 0
259 260 261 0
262 263 264 0
265 266 267 0
268 269 270 0
271 272 273 0
274 275 276 0
277 278 279 0
280 281 282 0
283 284 285 0
286 287 288 0
289 290 291 0
292 293 294 0
295 296 297 0
298 299 300 0
301 302 303 0
304 305 306 0
307 308 309 0
310 311 312 0
313 314 315 0
316 317 318 0
319 320 321 0
322 323 324 0
325 326 327 0
328 329 330 0
331 332 333 0
334 335 336 0
337 338 339 0
340 341 342 0
343 344 345 0
346 347 348 0
349 350 351 0
352 353 354 0
355 356 357 0
358 359 360 0
361 362 363 0
364 365 366 0
367 368 369 0
370 371 372 0
373 374 375 0
-1 -73 0
-2 -74 0
-3 -75 0
-1 -133 0
-2 -134 0
-3 -135 0
-1 -163 0
-2 -164 0
-3 -165 0
-1 -238 0
-2 -239 0
-3 -240 0
-4 -64 0
-5 -65 0
-6 -66 0
-4 -244 0
-5 -245 0
-6 -246 0
-7 -70 0
-8 -71 0
-9 -72 0
-7 -295 0
-8 -296 0
-9 -297 0
-7 -307 0
-8 -308 0
-9 -309 0
-10 -79 0
-11 -80 0
-12 -81 0
-10 -106 0
-11 -107 0
-12 -108 0
-10 -373 0
-11 -374 0
-12 -375 0
-16 -64 0
-17 -65 0
-18 -66 0
-16 -109 0
-17 -110 0
-18 -111 0
-16 -253 0
-17 -254 0
-18 -255 0
-16 -325 0
-17 -326 0
-18 -327 0
-16 -328 0
-17 -329 0
-18 -330 0
-16 -361 0
-17 -362 0
-18 -363 0
-19 -61 0
-20 -62 0
-21 -63 0
-19 -286 0
-20 -287 0
-21 -288 0
-22 -352 0
-23 -353 0
-24 -354 0
-25 -364 0
-26 -365 0
-27 -366 0
-28 -40 0
-29 -41 0
-30 -42 0
-28 -52 0
-29 -53 0
-30 -54 0
-28 -88 0
-29 -89 0
-30 -90 0
-28 -109 0
-29 -110 0
-30 -111 0
-28 -136 0
-29 -137 0
-30 -138 0
-28 -157 0
-29 -158 0
-30 -159 0
-28 -160 0
-29 -161 0
-30 -162 0
-28 -292 0
-29 -293 0
-30 -294 0
-31 -193 0
-32 -194 0
-33 -195 0
-31 -241 0
-32 -242 0
-33 -243 0
-31 -274 0
-32 -275 0
-33 -276 0
-34 -118 0
-35 -119 0
-36 -120 0
-34 -190 0
-35 -191 0
-36 -192 0
-34 -316 0
-35 -317 0
-36 -318 0
-37 -151 0
-38 -152 0
-39 -153 0
-37 -229 0
-38 -230 0
-39 -231 0
-37 -268 0
-38 -269 0
-39 -270 0
-37 -331 0
-38 -332 0
-39 -333 0
-40 -115 0
-41 -116 0
-42 -117 0
-40 -127 0
-41 -128 0
-42 -129 0
-40 -136 0
-41 -137 0
-42 -138 0
-40 -292 0
-41 -293 0
-42 -294 0
-40 -343 0
-41 -344 0
-42 -345 0
-43 -85 0
-44 -86 0
-45 -87 0
-46 -172 0
-47 -173 0
-48 -174 0
-46 -184 0
-47 -185 0
-48 -186 0
-49 -55 0
-50 -56 0
-51 -57 0
-49 -226 0
-50 -227 0
-51 -228 0
-52 -88 0
-53 -89 0
-54 -90 0
-52 -109 0
-53 -110 0
-54 -111 0
-52 -157 0
-53 -158 0
-54 -159 0
-52 -160 0
-53 -161 0
-54 -162 0
-52 -253 0
-53 -254 0
-54 -255 0
-52 -325 0
-53 -326 0
-54 -327 0
-55 -226 0
-56 -227 0
-57 -228 0
-55 -238 0
-56 -239 0
-57 -240 0
-58 -187 0
-59 -188 0
-60 -189 0
-58 -214 0
-59 -215 0
-60 -216 0
-61 -142 0
-62 -143 0
-63 -144 0
-61 -286 0
-62 -287 0
-63 -288 0
-61 -337 0
-62 -338 0
-63 -339 0
-64 -109 0
-65 -110 0
-66 -111 0
-64 -253 0
-65 -254 0
-66 -255 0
-64 -325 0
-65 -326 0
-66 -327 0
-70 -295 0
-71 -296 0
-72 -297 0
-73 -133 0
-74 -134 0
-75 -135 0
-73 -163 0
-74 -164 0
-75 -165 0
-73 -238 0
-74 -239 0
-75 -240 0
-76 -145 0
-77 -146 0
-78 -147 0
-76 -202 0
-77 -203 0
-78 -204 0
-79 -106 0
-80 -107 0
-81 -108 0
-79 -373 0
-80 -374 0
-81 -375 0
-82 -130 0
-83 -131 0
-84 -132 0
-82 -166 0
-83 -167 0
-84 -168 0
-82 -193 0
-83 -194 0
-84 -195 0
-82 -196 0
-83 -197 0
-84 -198 0
-82 -349 0
-83 -350 0
-84 -351 0
-85 -271 0
-86 -272 0
-87 -273 0
-88 -109 0
-89 -110 0
-90 -111 0
-88 -157 0
-89 -158 0
-90 -159 0
-88 -160 0
-89 -161 0
-90 -162 0
-88 -325 0
-89 -326 0
-90 -327 0
-91 -196 0
-92 -197 0
-93 -198 0
-91 -262 0
-92 -263 0
-93 -264 0
-91 -301 0
-92 -302 0
-93 -303 0
-91 -319 0
-92 -320 0
-93 -321 0
-91 -349 0
-92 -350 0
-93 -351 0
-94 -283 0
-95 -284 0
-96 -285 0
-94 -310 0
-95 -311 0
-96 -312 0
-97 -100 0
-98 -101 0
-99 -102 0
-97 -154 0
-98 -155 0
-99 -156 0
-100 -364 0
-101 -365 0
-102 -366 0
-103 -151 0
-104 -152 0
-105 -153 0
-103 -175 0
-104 -176 0
-105 -177 0
-103 -229 0
-104 -230 0
-105 -231 0
-103 -235 0
-104 -236 0
-105 -237 0
-103 -331 0
-104 -332 0
-105 -333 0
-106 -259 0
-107 -260 0
-108 -261 0
-106 -322 0
-107 -323 0
-108 -324 0
-106 -358 0
-107 -359 0
-108 -360 0
-106 -373 0
-107 -374 0
-108 -375 0
-109 -157 0
-110 -158 0
-111 -159 0
-109 -253 0
-110 -254 0
-111 -255 0
-109 -325 0
-110 -326 0
-111 -327 0
-112 -121 0
-113 -122 0
-114 -123 0
-112 -271 0
-113 -272 0
-114 -273 0
-115 -301 0
-116 -302 0
-117 -303 0
-115 -343 0
-116 -344 0
-117 -345 0
-121 -271 0
-122 -272 0
-123 -273 0
-124 -223 0
-125 -224 0
-126 -225 0
-124 -280 0
-125 -281 0
-126 -282 0
-127 -157 0
-128 -158 0
-129 -159 0
-127 -160 0
-128 -161 0
-129 -162 0
-130 -166 0
-131 -167 0
-132 -168 0
-130 -193 0
-131 -194 0
-132 -195 0
-130 -196 0
-131 -197 0
-132 -198 0
-130 -241 0
-131 -242 0
-132 -243 0
-130 -349 0
-131 -350 0
-132 -351 0
-133 -163 0
-134 -164 0
-135 -165 0
-133 -238 0
-134 -239 0
-135 -240 0
-136 -292 0
-137 -293 0
-138 -294 0
-136 -343 0
-137 -344 0
-138 -345 0
-139 -232 0
-140 -233 0
-141 -234 0
-139 -247 0
-140 -248 0
-141 -249 0
-142 -286 0
-143 -287 0
-144 -288 0
-142 -298 0
-143 -299 0
-144 -300 0
-145 -202 0
-146 -203 0
-147 -204 0
-148 -205 0
-149 -206 0
-150 -207 0
-148 -223 0
-149 -224 0
-150 -225 0
-148 -250 0
-149 -251 0
-150 -252 0
-148 -256 0
-149 -257 0
-150 -258 0
-148 -265 0
-149 -266 0
-150 -267 0
-148 -334 0
-149 -335 0
-150 -336 0
-151 -175 0
-152 -176 0
-153 -177 0
-151 -229 0
-152 -230 0
-153 -231 0
-151 -235 0
-152 -236 0
-153 -237 0
-151 -331 0
-152 -332 0
-153 -333 0
-154 -199 0
-155 -200 0
-156 -201 0
-154 -289 0
-155 -290 0
-156 -291 0
-157 -160 0
-158 -161 0
-159 -162 0
-163 -238 0
-164 -239 0
-165 -240 0
-166 -241 0
-167 -242 0
-168 -243 0
-166 -307 0
-167 -308 0
-168 -309 0
-169 -328 0
-170 -329 0
-171 -330 0
-169 -352 0
-170 -353 0
-171 -354 0
-169 -361 0
-170 -362 0
-171 -363 0
-169 -370 0
-170 -371 0
-171 -372 0
-172 -184 0
-173 -185 0
-174 -186 0
-172 -265 0
-173 -266 0
-174 -267 0
-175 -184 0
-176 -185 0
-177 -186 0
-175 -235 0
-176 -236 0
-177 -237 0
-175 -331 0
-176 -332 0
-177 -333 0
-178 -220 0
-179 -221 0
-180 -222 0
-178 -271 0
-179 -272 0
-180 -273 0
-181 -220 0
-182 -221 0
-183 -222 0
-187 -214 0
-188 -215 0
-189 -216 0
-187 -247 0
-188 -248 0
-189 -249 0
-190 -211 0
-191 -212 0
-192 -213 0
-190 -217 0
-191 -218 0
-192 -219 0
-193 -241 0
-194 -242 0
-195 -243 0
-193 -274 0
-194 -275 0
-195 -276 0
-196 -262 0
-197 -263 0
-198 -264 0
-196 -301 0
-197 -302 0
-198 -303 0
-196 -349 0
-197 -350 0
-198 -351 0
-199 -289 0
-200 -290 0
-201 -291 0
-205 -223 0
-206 -224 0
-207 -225 0
-205 -250 0
-206 -251 0
-207 -252 0
-205 -256 0
-206 -257 0
-207 -258 0
-208 -316 0
-209 -317 0
-210 -318 0
-208 -346 0
-209 -347 0
-210 -348 0
-211 -217 0
-212 -218 0
-213 -219 0
-217 -298 0
-218 -299 0
-219 -300 0
-220 -271 0
-221 -272 0
-222 -273 0
-226 -277 0
-227 -278 0
-228 -279 0
-229 -331 0
-230 -332 0
-231 -333 0
-250 -256 0
-251 -257 0
-252 -258 0
-250 -265 0
-251 -266 0
-252 -267 0
-250 -334 0
-251 -335 0
-252 -336 0
-253 -325 0
-254 -326 0
-255 -327 0
-256 -265 0
-257 -266 0
-258 -267 0
-256 -334 0
-257 -335 0
-258 -336 0
-259 -304 0
-260 -305 0
-261 -306 0
-259 -322 0
-260 -323 0
-261 -324 0
-259 -358 0
-260 -359 0
-261 -360 0
-259 -367 0
-260 -368 0
-261 -369 0
-259 -373 0
-260 -374 0
-261 -375 0
-262 -301 0
-263 -302 0
-264 -303 0
-262 -319 0
-263 -320 0
-264 -321 0
-265 -334 0
-266 -335 0
-267 -336 0
-274 -340 0
-275 -341 0
-276 -342 0
-283 -310 0
-284 -311 0
-285 -312 0
-286 -337 0
-287 -338 0
-288 -339 0
-292 -361 0
-293 -362 0
-294 -363 0
-292 -370 0
-293 -371 0
-294 -372 0
-301 -343 0
-302 -344 0
-303 -345 0
-301 -349 0
-302 -350 0
-303 -351 0
-304 -322 0
-305 -323 0
-306 -324 0
-304 -367 0
-305 -368 0
-306 -369 0
-316 -346 0
-317 -347 0
-318 -348 0
-319 -355 0
-320 -356 0
-321 -357 0
-322 -358 0
-323 -359 0
-324 -360 0
-322 -367 0
-323 -368 0
-324 -369 0
-322 -373 0
-323 -374 0
-324 -375 0
-328 -361 0
-329 -362 0
-330 -363 0
-328 -370 0
-329 -371 0
-330 -372 0
-358 -373 0
-359 -374 0
-360 -375 0
-361 -370 0
-362 -371 0
-363 -372 0
-2 -1 0
-3 -1 0
-3 -2 0
-5 -4 0
-6 -4 0
-6 -5 0
-8 -7 0
-9 -7 0
-9 -8 0
-11 -10 0
-12 -10 0
-12 -11 0
-14 -13 0
-15 -13 0
-15 -14 0
-17 -16 0
-18 -16 0
-18 -17 0
-20 -19 0
-21 -19 0
-21 -20 0
-23 -22 0
-24 -22 0
-24 -23 0
-26 -25 0
-27 -25 0
-27 -26 0
-29 -28 0
-30 -28 0
-30 -29 0
-32 -31 0
-33 -31 0
-33 -32 0
-35 -34 0
-36 -34 0
-36 -35 0
-38 -37 0
-39 -37 0
-39 -38 0
-41 -40 0
-42 -40 0
-42 -41 0
-44 -43 0
-45 -43 0
-45 -44 0
-47 -46 0
-48 -46 0
-48 -47 0
-50 -49 0
-51 -49 0
-51 -50 0
-53 -52 0
-54 -52 0
-54 -53 0
-56 -55 0
-57 -55 0
-57 -56 0
-59 -58 0
-60 -58 0
-60 -59 0
-62 -61 0
-63 -61 0
-63 -62 0
-65 -64 0
-66 -64 0
-66 -65 0
-68 -67 0
-69 -67 0
-69 -68 0
-71 -70 0
-72 -70 0
-72 -71 0
-74 -73 0
-75 -73 0
-75 -74 0
-77 -76 0
-78 -76 0
-78 -77 0
-80 -79 0
-81 -79 0
-81 -80 0
-83 -82 0
-84 -82 0
-84 -83 0
-86 -85 0
-87 -85 0
-87 -86 0
-89 -88 0
-90 -88 0
-90 -89 0
-92 -91 0
-93 -91 0
-93 -92 0
-95 -94 0
-96 -94 0
-96 -95 0
-98 -97 0
-99 -97 0
-99 -98 0
-101 -100 0
-102 -100 0
-102 -101 0
-104 -103 0
-105 -103 0
-105 -104 0
-107 -106 0
-108 -106 0
-108 -107 0
-110 -109 0
-111 -109 0
-111 -110 0
-113 -112 0
-114 -112 0
-114 -113 0
-116 -115 0
-117 -115 0
-117 -116 0
-119 -118 0
-120 -118 0
-120 -119 0
-122 -121 0
-123 -121 0
-123 -122 0
-125 -124 0
-126 -124 0
-126 -125 0
-128 -127 0
-129 -127 0
-129 -128 0
-131 -130 0
-132 -130 0
-132 -131 0
-134 -133 0
-135 -133 0
-135 -134 0
-137 -136 0
-138 -136 0
-138 -137 0
-140 -139 0
-141 -139 0
-141 -140 0
-143 -142 0
-144 -142 0
-144 -143 0
-146 -145 0
-147 -145 0
-147 -146 0
-149 -148 0
-150 -148 0
-150 -149 0
-152 -151 0
-153 -151 0
-153 -152 0
-155 -154 0
-156 -154 0
-156 -155 0
-158 -157 0
-159 -157 0
-159 -158 0
-161 -160 0
-162 -160 0
-162 -161 0
-164 -163 0
-165 -163 0
-165 -164 0
-167 -166 0
-168 -166 0
-168 -167 0
-170 -169 0
-171 -169 0
-171 -170 0
-173 -172 0
-174 -172 0
-174 -173 0
-176 -175 0
-177 -175 0
-177 -176 0
-179 -178 0
-180 -178 0
-180 -179 0
-182 -181 0
-183 -181 0
-183 -182 0
-185 -184 0
-186 -184 0
-186 -185 0
-188 -187 0
-189 -187 0
-189 -188 0
-191 -190 0
-192 -190 0
-192 -191 0
-194 -193 0
-195 -193 0
-195 -194 0
-197 -196 0
-198 -196 0
-198 -197 0
-200 -199 0
-201 -199 0
-201 -200 0
-203 -202 0
-204 -202 0
-204 -203 0
-206 -205 0
-207 -205 0
-207 -206 0
-209 -208 0
-210 -208 0
-210 -209 0
-212 -211 0
-213 -211 0
-213 -212 0
-215 -214 0
-216 -214 0
-216 -215 0
-218 -217 0
-219 -217 0
-219 -218 0
-221 -220 0
-222 -220 0
-222 -221 0
-224 -223 0
-225 -223 0
-225 -224 0
-227 -226 0
-228 -226 0
-228 -227 0
-230 -229 0
-231 -229 0
-231 -230 0
-233 -232 0
-234 -232 0
-234 -233 0
-236 -235 0
-237 -235 0
-237 -236 0
-239 -238 0
-240 -238 0
-240 -239 0
-242 -241 0
-243 -241 0
-243 -242 0
-245 -244 0
-246 -244 0
-246 -245 0
-248 -247 0
-249 -247 0
-249 -248 0
-251 -250 0
-252 -250 0
-252 -251 0
-254 -253 0
-255 -253 0
-255 -254 0
-257 -256 0
-258 -256 0
-258 -257 0
-260 -259 0
-261 -259 0
-261 -260 0
-263 -262 0
-264 -262 0
-264 -263 0
-266 -265 0
-267 -265 0
-267 -266 0
-269 -268 0
-270 -268 0
-270 -269 0
-272 -271 0
-273 -271 0
-273 -272 0
-275 -274 0
-276 -274 0
-276 -275 0
-278 -277 0
-279 -277 0
-279 -278 0
-281 -280 0
-282 -280 0
-282 -281 0
-284 -283 0
-285 -283 0
-285 -284 0
-287 -286 0
-288 -286 0
-288 -287 0
-290 -289 0
-291 -289 0
-291 -290 0
-293 -292 0
-294 -292 0
-294 -293 0
-296 -295 0
-297 -295 0
-297 -296 0
-299 -298 0
-300 -298 0
-300 -299 0
-302 -301 0
-303 -301 0
-303 -302 0
-305 -304 0
-306 -304 0
-306 -305 0
-308 -307 0
-309 -307 0
-309 -308 0
-311 -310 0
-312 -310 0
-312 -311 0
-314 -313 0
-315 -313 0
-315 -314 0
-317 -316 0
-318 -316 0
-318 -317 0
-320 -319 0
-321 -319 0
-321 -320 0
-323 -322 0
-324 -322 0
-324 -323 0
-326 -325 0
-327 -325 0
-327 -326 0
-329 -328 0
-330 -328 0
-330 -329 0
-332 -331 0
-333 -331 0
-333 -332 0
-335 -334 0
-336 -334 0
-336 -335 0
-338 -337 0
-339 -337 0
-339 -338 0
-341 -340 0
-342 -340 0
-342 -341 0
-344 -343 0
-345 -343 0
-345 -344 0
-347 -346 0
-348 -346 0
-348 -347 0
-350 -349 0
-351 -349 0
-351 -350 0
-353 -352 0
-354 -352 0
-354 -353 0
-356 -355 0
-357 -355 0
-357 -356 0
-359 -358 0
-360 -358 0
-360 -359 0
-362 -361 0
-363 -361 0
-363 -362 0
-365 -364 0
-366 -364 0
-366 -365 0
-368 -367 0
-369 -367 0
-369 -368 0
-371 -370 0
-372 -370 0
-372 -371 0
-374 -373 0
-375 -373 0
-375 -374 0
